
Gurobi 10.0.1 (win64) logging started Sat Sep  9 01:38:43 2023

Set parameter LogFile to value "results-heuristic-start//log/BA_11_deadline.log"
Gurobi Optimizer version 10.0.1 build v10.0.1rc0 (win64)

CPU model: AMD Ryzen 7 3700X 8-Core Processor, instruction set [SSE2|AVX|AVX2]
Thread count: 8 physical cores, 16 logical processors, using up to 16 threads

Optimize a model with 285 rows, 296 columns and 1040 nonzeros
Model fingerprint: 0xe927ef4e
Model has 1 quadratic constraint
Variable types: 30 continuous, 266 integer (265 binary)
Coefficient statistics:
  Matrix range     [1e+00, 1e+06]
  QMatrix range    [1e+00, 1e+00]
  QLMatrix range   [1e+00, 1e+01]
  Objective range  [1e+00, 1e+00]
  Bounds range     [1e+00, 1e+00]
  RHS range        [1e+00, 3e+06]

Warning: Completing partial solution with 251 unfixed non-continuous variables out of 266
User MIP start produced solution with objective 951 (0.00s)
Loaded user MIP start with objective 951

Presolve removed 59 rows and 172 columns
Presolve time: 0.02s
Presolved: 237 rows, 134 columns, 996 nonzeros
Variable types: 40 continuous, 94 integer (93 binary)

Root relaxation: objective 0.000000e+00, 43 iterations, 0.00 seconds (0.00 work units)

    Nodes    |    Current Node    |     Objective Bounds      |     Work
 Expl Unexpl |  Obj  Depth IntInf | Incumbent    BestBd   Gap | It/Node Time

     0     0    0.00000    0    2  951.00000    0.00000   100%     -    0s
H    0     0                     950.0000000    0.00000   100%     -    0s
H    0     0                      54.0000000    0.00000   100%     -    0s
     0     0    0.00000    0    6   54.00000    0.00000   100%     -    0s
H    0     0                      53.0000000    0.00000   100%     -    0s
     0     0    0.00000    0    6   53.00000    0.00000   100%     -    0s
     0     0    0.00000    0    5   53.00000    0.00000   100%     -    0s
H    0     0                      52.0000000    0.00000   100%     -    0s
H    0     0                      45.0000000    0.00000   100%     -    0s
     0     0    0.00000    0   12   45.00000    0.00000   100%     -    0s
     0     0    0.00000    0    4   45.00000    0.00000   100%     -    0s
     0     0    0.00000    0   14   45.00000    0.00000   100%     -    0s
     0     0    0.00000    0    2   45.00000    0.00000   100%     -    0s
     0     0    0.00000    0    2   45.00000    0.00000   100%     -    0s
     0     2    0.00000    0    2   45.00000    0.00000   100%     -    0s
H   36    15                      42.0000000    6.00000  85.7%  24.2    0s
H   66    43                      41.0000000    6.00000  85.4%  17.0    0s
H   85    56                      37.0000000    6.00000  83.8%  15.2    0s
H  305   135                      34.0000000    6.00000  82.4%   9.3    0s

Cutting planes:
  Learned: 2

Explored 18727 nodes (76917 simplex iterations) in 1.05 seconds (0.73 work units)
Thread count was 16 (of 16 available processors)

Solution count 10: 34 34 37 ... 950

Optimal solution found (tolerance 1.00e-04)
Best objective 3.400000000000e+01, best bound 3.400000000000e+01, gap 0.0000%
Warning: constraint name "precedence between 0,2 to 0,0 if x_[j,l,h,z,i]=1" has a space
Warning: constraint name "precedence between 0,2 to 0,0 if x_[j,l,h,z,i]=1" has a space
Warning: default constraint names used to write mps file
